1527
82 45 64 56 31 34 83 77 42 37 47 19 65 73 44 32 54 46 8 93 98 58 69 63 90 68 70 33 87 96 40 36 10 84 91 57 16 49 72 38 59 5 6 89 18 74 71 94 99 15 13 48 80 25 24 85 26 50 22 23 14 43 28 41 12 51 4 66 20 78 29 88 60 76 67 92 95 30 97 75 17 62 21 79 55 27 35 1 2 7 86 11 52 9 81 39 61 3 53 
